50
15518

308 527
509 61
223 279
501 288
177 616
131 763
866 857
203 501
116 544
743 906
935 575
905 301
48 952
883 389
861 305
348 67
480 879
592 254
852 5
541 444
224 576
542 442
442 680
424 438
359 967
538 629
457 789
15 47
14 470
597 356
462 451
607 535
752 272
424 419
143 592
598 429
888 99
643 75
116 602
766 905
16 282
678 950
886 616
281 711
427 356
499 730
951 390
626 147
655 135
135 416
